\ENCODING=ISO-8859-1
\Problem name: instances

Maximize
 obj:
Subject To
 c1: 932 x1 + 631 x2 + 296 x3 + 189 x4 + 100 x5 + 548 x6 + 944 x7 + 77 x8
     + 262 x9 + 115 x10 + 427 x11 + 228 x12 + 759 x13 + 309 x14 + 298 x15
     + 963 x16 + 796 x17 + 395 x18 + 46 x19 + 564 x20 + 533 x21 + 704 x22
     + 158 x23 + 23 x24 + 458 x25 + 476 x26 + 124 x27 + 207 x28 + 482 x29
     + 889 x30 + 463 x31 + 413 x32 + 519 x33 + 759 x34 + 601 x35 + 618 x36
     + 306 x37 + 544 x38 + 695 x39 + 568 x40 + 659 x41 + 121 x42 + 795 x43
     + 418 x44 + 430 x45 + 93 x46 + 380 x47 + 225 x48 + 487 x49 + 426 x50
     + 789 x51 + 20 x52 + 129 x53 + 946 x54 + 42 x55 + 586 x56 + 421 x57
     + 166 x58 + 793 x59 + 902 x60 + 54 x61 + 256 x62 + 315 x63 + 572 x64
     + 14 x65 + 915 x66 + 190 x67 + 320 x68 + 459 x69 + 884 x70 + 887 x71
     + 118 x72 + 5 x73 + 682 x74 + 535 x75 + 434 x76 + 774 x77 + 915 x78
     + 659 x79 + 261 x80 + 340 x81 + 447 x82 + 281 x83 + 468 x84 + 393 x85
     + 322 x86 + 54 x87 + 813 x88 + 488 x89 + 847 x90 + 715 x91 + 541 x92
     + 102 x93 + 29 x94 + 113 x95 + 116 x96 + 944 x97 + 303 x98 + 435 x99
     + 403 x100 <= 22325
Bounds
 0 <= x1 <= 1
 0 <= x2 <= 1
 0 <= x3 <= 1
 0 <= x4 <= 1
 0 <= x5 <= 1
 0 <= x6 <= 1
 0 <= x7 <= 1
 0 <= x8 <= 1
 0 <= x9 <= 1
 0 <= x10 <= 1
 0 <= x11 <= 1
 0 <= x12 <= 1
 0 <= x13 <= 1
 0 <= x14 <= 1
 0 <= x15 <= 1
 0 <= x16 <= 1
 0 <= x17 <= 1
 0 <= x18 <= 1
 0 <= x19 <= 1
 0 <= x20 <= 1
 0 <= x21 <= 1
 0 <= x22 <= 1
 0 <= x23 <= 1
 0 <= x24 <= 1
 0 <= x25 <= 1
 0 <= x26 <= 1
 0 <= x27 <= 1
 0 <= x28 <= 1
 0 <= x29 <= 1
 0 <= x30 <= 1
 0 <= x31 <= 1
 0 <= x32 <= 1
 0 <= x33 <= 1
 0 <= x34 <= 1
 0 <= x35 <= 1
 0 <= x36 <= 1
 0 <= x37 <= 1
 0 <= x38 <= 1
 0 <= x39 <= 1
 0 <= x40 <= 1
 0 <= x41 <= 1
 0 <= x42 <= 1
 0 <= x43 <= 1
 0 <= x44 <= 1
 0 <= x45 <= 1
 0 <= x46 <= 1
 0 <= x47 <= 1
 0 <= x48 <= 1
 0 <= x49 <= 1
 0 <= x50 <= 1
 0 <= x51 <= 1
 0 <= x52 <= 1
 0 <= x53 <= 1
 0 <= x54 <= 1
 0 <= x55 <= 1
 0 <= x56 <= 1
 0 <= x57 <= 1
 0 <= x58 <= 1
 0 <= x59 <= 1
 0 <= x60 <= 1
 0 <= x61 <= 1
 0 <= x62 <= 1
 0 <= x63 <= 1
 0 <= x64 <= 1
 0 <= x65 <= 1
 0 <= x66 <= 1
 0 <= x67 <= 1
 0 <= x68 <= 1
 0 <= x69 <= 1
 0 <= x70 <= 1
 0 <= x71 <= 1
 0 <= x72 <= 1
 0 <= x73 <= 1
 0 <= x74 <= 1
 0 <= x75 <= 1
 0 <= x76 <= 1
 0 <= x77 <= 1
 0 <= x78 <= 1
 0 <= x79 <= 1
 0 <= x80 <= 1
 0 <= x81 <= 1
 0 <= x82 <= 1
 0 <= x83 <= 1
 0 <= x84 <= 1
 0 <= x85 <= 1
 0 <= x86 <= 1
 0 <= x87 <= 1
 0 <= x88 <= 1
 0 <= x89 <= 1
 0 <= x90 <= 1
 0 <= x91 <= 1
 0 <= x92 <= 1
 0 <= x93 <= 1
 0 <= x94 <= 1
 0 <= x95 <= 1
 0 <= x96 <= 1
 0 <= x97 <= 1
 0 <= x98 <= 1
 0 <= x99 <= 1
 0 <= x100 <= 1
Binaries
 x1  x2  x3  x4  x5  x6  x7  x8  x9  x10  x11  x12  x13  x14  x15  x16  x17 
 x18  x19  x20  x21  x22  x23  x24  x25  x26  x27  x28  x29  x30  x31  x32 
 x33  x34  x35  x36  x37  x38  x39  x40  x41  x42  x43  x44  x45  x46  x47 
 x48  x49  x50  x51  x52  x53  x54  x55  x56  x57  x58  x59  x60  x61  x62 
 x63  x64  x65  x66  x67  x68  x69  x70  x71  x72  x73  x74  x75  x76  x77 
 x78  x79  x80  x81  x82  x83  x84  x85  x86  x87  x88  x89  x90  x91  x92 
 x93  x94  x95  x96  x97  x98  x99  x100 
End
